NAME : XML100_3355_15
DIMENSION : 101
NB_CLUSTERS : 5
CLUSTERING_ALG : KMedoids
CLUSTERING_PARAMS : k(4)
CLUSTERS
1 0
2 2 4 10 11 14 21 27 31 35 37 38 40 43 59 63 70 72 76 78 80 82 89 93
3 3 15 17 20 32 54 66 67 75 81 84 85 86 87 100
4 7 8 12 16 22 23 25 28 29 34 39 41 44 46 47 48 50 53 55 58 61 64 65 68 71 74 83 88 90 92 94 95 97 98
5 1 5 6 9 13 18 19 24 26 30 33 36 42 45 49 51 52 56 57 60 62 69 73 77 79 91 96 99
EOF